%%
% Autogenerated by /opt/prj/battleships-ai/src/server/solver.py, instance 2 8x8 [3] #18 <b4zi3j1n>
% Source: https://www.puzzle-battleships.com/?size=2
%%

size = 8;
hints_num = 3;
hints = [| 1, 3 | 5, 7 | 7, 2 |];
ships_num = 9;

constr_rows = [6, 0, 5, 2, 2, 1, 1, 2];
constr_cols = [2, 2, 1, 4, 1, 2, 5, 2];

given_ships = [|
<>, <>, <>, <>, 1, |
<>, <>, <>, <>, 1, |
<>, <>, <>, <>, 1, |
<>, <>, <>, <>, 2, |
<>, <>, <>, <>, 2, |
<>, <>, <>, <>, 2, |
<>, <>, <>, <>, 3, |
<>, <>, <>, <>, 3, |
<>, <>, <>, <>, 4  |];

